solution status: optimal solution found
objective value:                     142295.411316319
d11(0,0)                                            1 	(obj:0)
d11(1,1)                                            1 	(obj:0)
d11(2,5)                                            1 	(obj:0)
d11(3,7)                                            1 	(obj:0)
d11(3,8)                                            1 	(obj:0)
d11(3,9)                                            1 	(obj:0)
d11(3,10)                                           1 	(obj:0)
d11(3,11)                                           1 	(obj:0)
d11(3,12)                                           1 	(obj:0)
d11(3,13)                                           1 	(obj:0)
d11(3,14)                                           1 	(obj:0)
d12(2,4)                                            1 	(obj:0)
d12(2,6)                                            1 	(obj:0)
d21(3,7)                                            1 	(obj:0)
d21(3,8)                                            1 	(obj:0)
d21(3,9)                                            1 	(obj:0)
WB(2)                                3315.65537776224 	(obj:0)
y2(2,4)                              1385.48851144896 	(obj:0)
y2(2,6)                              1385.48851144896 	(obj:0)
STE(1,1)                             11382.7501011112 	(obj:0)
STE(0,0)                                        14175 	(obj:0)
STE(1,2)                                        13041 	(obj:0)
STE(2,3)                             10248.7501011112 	(obj:0)
STE(2,4)                             11564.9641869877 	(obj:0)
STE(2,5)                                        11907 	(obj:0)
STE(2,6)                             13223.2140858765 	(obj:0)
STE(3,7)                             4011.74990111115 	(obj:0)
STE(3,8)                             5669.99979999997 	(obj:0)
STE(3,9)                             5327.96398698766 	(obj:0)
STE(3,10)                            6986.21388587648 	(obj:0)
STE(3,11)                                   5669.9998 	(obj:0)
STE(3,12)                            7328.24969888882 	(obj:0)
STE(3,13)                            6986.21388587645 	(obj:0)
STE(3,14)                            8644.46378476533 	(obj:0)
AVE(2)                               3315.65537776224 	(obj:0)
y1(1,1)                              1492.42490899996 	(obj:0)
y1(3,7)                                    4592.70018 	(obj:0)
y1(3,8)                              3100.27527100007 	(obj:0)
y1(3,9)                                    4592.70018 	(obj:0)
y1(3,10)                             3100.27527100007 	(obj:0)
y1(3,11)                                   4592.70018 	(obj:0)
y1(3,12)                             3100.27527100007 	(obj:0)
y1(3,13)                             4592.70018000006 	(obj:0)
y1(3,14)                             3100.27527100007 	(obj:0)
AVE(3)                               3315.65799770399 	(obj:0)
WB(1)                                3248.33172520918 	(obj:0)
WG(3)                                3315.65799770399 	(obj:10)
BG(1)                                4196.29249897959 	(obj:10)
BG(2)                                2673.40993877551 	(obj:10)
BG(3)                                 4044.1806961736 	(obj:10)
AVE(1)                               3248.33172520918 	(obj:0)
